NAME : n100w40.002.786.tour
COMMENT : Length = 786
COMMENT : Found by LKH [Keld Helsgaun] Tue Nov  7 19:36:29 2017
TYPE : TOUR
DIMENSION : 101
TOUR_SECTION
1
10
45
82
38
81
34
97
39
55
21
17
62
78
28
29
20
43
14
59
74
99
63
37
65
35
92
94
13
58
9
8
76
16
95
86
33
96
3
71
26
50
73
84
66
100
47
51
57
93
4
5
91
19
54
67
18
72
69
7
12
89
2
44
36
11
6
90
88
61
31
27
56
83
77
30
48
24
60
52
22
46
15
79
80
49
85
41
32
40
68
25
42
53
98
64
23
101
75
87
70
-1
EOF
